
Log started (V11.0.0) Sun Apr 13 12:59:37 2008

Tried aggregator 1 time.
Reduced MIP has 110 rows, 1001 columns, and 2010 nonzeros.
Presolve time =    0.00 sec.
Clique table members: 100.
MIP emphasis: balance optimality and feasibility.
MIP search method: dynamic search.
Parallel mode: none, using 1 thread.
Root relaxation solution time =    0.02 sec.

        Nodes                                         Cuts/
   Node  Left     Objective  IInf  Best Integer     Best Node    ItCnt     Gap

*     0+    0                         5087.0000       99.4313      212   98.05%
*     0+    0                          112.0000       99.4313      212   11.22%
      0     0      100.0000    17      112.0000      Fract: 9      228   10.71%
*     0+    0                          109.0000      100.0000      228    8.26%
      0     0      100.0000    19      109.0000     Covers: 1      246    8.26%
*     0+    0                          107.0000      100.0000      246    6.54%
      0     0      100.0000    22      107.0000     Covers: 1      275    6.54%
*     0+    0                          106.0000      100.0000      275    5.66%
*     0+    0                          103.0000      100.0000      275    2.91%

Repeating presolve.
Tried aggregator 1 time.
MIP Presolve eliminated 6 rows and 640 columns.
Aggregator did 12 substitutions.
Reduced MIP has 92 rows, 349 columns, and 706 nonzeros.
Tried aggregator 1 time.
Represolve time =    0.00 sec.
Clique table members: 96.
MIP emphasis: balance optimality and feasibility.
MIP search method: dynamic search.
Parallel mode: none, using 1 thread.
Root relaxation solution time =    0.02 sec.

        Nodes                                         Cuts/
   Node  Left     Objective  IInf  Best Integer     Best Node    ItCnt     Gap

      0     0      100.0000    23      103.0000      100.0000       91    2.91%
      0     2      100.0000    23      103.0000      100.0000       91    2.91%
    100    54      102.0000    39      103.0000      100.0000     1006    2.91%
    200    87        cutoff            103.0000      101.0000     7003    1.94%
    300    94      102.0000    53      103.0000      102.0000    13097    0.97%
    400    88    infeasible            103.0000      102.0000    23081    0.97%
    500    16    infeasible            103.0000      102.0000    35170    0.97%

Cover cuts applied:  241
Gomory fractional cuts applied:  1

Solution pool: 6 solutions saved.

MIP - Integer optimal solution:  Objective = 1.0300000000e+002
Solution time =    3.13 sec.  Iterations = 36794  Nodes = 517


Incumbent solution
Variable Name           Solution Value
Cmax                        103.000000
X_1_7                         1.000000
X_2_6                         1.000000
X_3_3                         1.000000
X_4_3                         1.000000
X_5_9                         1.000000
X_6_2                         1.000000
X_7_8                         1.000000
X_8_4                         1.000000
X_9_2                         1.000000
X_10_4                        1.000000
X_11_7                        1.000000
X_12_3                        1.000000
X_13_8                        1.000000
X_14_5                        1.000000
X_15_8                        1.000000
X_16_1                        1.000000
X_17_3                        1.000000
X_18_1                        1.000000
X_19_3                        1.000000
X_20_2                        1.000000
X_21_10                       1.000000
X_22_1                        1.000000
X_23_5                        1.000000
X_24_7                        1.000000
X_25_9                        1.000000
X_26_6                        1.000000
X_27_9                        1.000000
X_28_9                        1.000000
X_29_5                        1.000000
X_30_3                        1.000000
X_31_1                        1.000000
X_32_10                       1.000000
X_33_1                        1.000000
X_34_10                       1.000000
X_35_9                        1.000000
X_36_4                        1.000000
X_37_4                        1.000000
X_38_2                        1.000000
X_39_5                        1.000000
X_40_2                        1.000000
X_41_7                        1.000000
X_42_4                        1.000000
X_43_8                        1.000000
X_44_2                        1.000000
X_45_2                        1.000000
X_46_7                        1.000000
X_47_1                        1.000000
X_48_9                        1.000000
X_49_5                        1.000000
X_50_4                        1.000000
X_51_5                        1.000000
X_52_7                        1.000000
X_53_4                        1.000000
X_54_10                       1.000000
X_55_7                        1.000000
X_56_6                        1.000000
X_57_5                        1.000000
X_58_3                        1.000000
X_59_6                        1.000000
X_60_2                        1.000000
X_61_7                        1.000000
X_62_3                        1.000000
X_63_10                       1.000000
X_64_7                        1.000000
X_65_3                        1.000000
X_66_3                        1.000000
X_67_10                       1.000000
X_68_2                        1.000000
X_69_1                        1.000000
X_70_9                        1.000000
X_71_5                        1.000000
X_72_5                        1.000000
X_73_8                        1.000000
X_74_1                        1.000000
X_75_6                        1.000000
X_76_1                        1.000000
X_77_7                        1.000000
X_78_8                        1.000000
X_79_6                        1.000000
X_80_2                        1.000000
X_81_8                        1.000000
X_82_8                        1.000000
X_83_3                        1.000000
X_84_4                        1.000000
X_85_8                        1.000000
X_86_5                        1.000000
X_87_7                        1.000000
X_88_9                        1.000000
X_89_7                        1.000000
X_90_10                       1.000000
X_91_7                        1.000000
X_92_2                        1.000000
X_93_3                        1.000000
X_94_7                        1.000000
X_95_8                        1.000000
X_96_3                        1.000000
X_97_2                        1.000000
X_98_1                        1.000000
X_99_6                        1.000000
X_100_7                       1.000000
All other variables in the range 1-1001 are 0.
